%pal nprocs 8
end
!BP86 DEF2-SVP NUMFREQ
%ELPROP
   POLAR 1
END
*xyz 0 1
O      2.385344    1.481301    0.032546
O      2.930579   -0.755101   -0.087087
O     -3.436429   -0.298427    0.248922
N     -1.683792   -2.236561    0.093117
C      1.235687    0.724016    0.058114
C      1.580614   -0.635378   -0.013725
C     -1.099383    0.124650    0.151456
C     -0.737204   -1.266185    0.080267
C     -0.071975    1.118833    0.139302
C      0.638647   -1.636380   -0.005077
C      3.467217    0.572003   -0.071105
C     -2.513779    0.521401    0.233217
C     -2.865172    2.001474    0.298667
H     -0.317599    2.178226    0.193093
H      0.930921   -2.686251   -0.060971
H      4.025908    0.748115   -1.008883
H      4.141162    0.680348    0.798194
H     -1.418035   -3.207971    0.029782
H     -2.656699   -1.933927    0.148605
H     -2.495715    2.542966   -0.586612
H     -2.424875    2.482375    1.186770
H     -3.957721    2.090573    0.346009
*
